DIMENSION: 32
EDGE_WEIGHT_TYPE: EXPLICIT
EDGE_WEIGHT_FORMAT: FULL_MATRIX
EDGE_WEIGHT_SECTION:
32767 32767 32767 32767 69 32767 32767 32767 32767 32767 32767 13 85 61 15 32767 40 17 32767 32767 32767 32767 60 99 9 32767 63 65 67 99 32767 35 
32767 32767 32767 32767 32767 32767 32767 32767 32767 35 32767 32767 32767 28 83 32767 44 32767 32767 75 65 32767 63 32767 97 32767 32767 84 32767 32767 32767 32767 
32767 32767 32767 92 95 32767 32767 24 21 32767 32767 32767 35 32767 32767 60 50 52 32767 32767 78 32767 32767 32767 32767 81 5 32767 32767 32767 32767 58 
32767 32767 92 32767 32767 32767 32767 32767 32767 32767 4 32767 32767 32767 32767 32767 32767 32767 32767 32767 42 89 32767 60 16 46 79 32767 32767 32767 72 32767 
69 32767 95 32767 32767 32767 32767 53 32767 32767 32767 32767 20 30 32767 32767 32767 32767 32767 32767 32767 5 32767 32767 32767 72 22 32767 32767 11 32767 32767 
32767 32767 32767 32767 32767 32767 6 19 32767 32767 32767 18 32767 13 32767 2 32767 32767 32767 32767 27 32767 32767 32767 32767 100 32767 32767 32767 32767 32767 28 
32767 32767 32767 32767 32767 6 32767 32767 15 93 34 32767 32767 32767 32767 32767 32767 32767 32767 24 32767 41 32767 32767 32767 87 86 85 59 32767 32767 32767 
32767 32767 24 32767 53 19 32767 32767 32767 32767 17 4 3 32767 32767 32767 32767 32767 32767 32767 32767 51 72 32767 32767 32767 48 32767 32767 32767 40 32767 
32767 32767 21 32767 32767 32767 15 32767 32767 32767 32767 32767 63 81 46 32767 32767 32767 32767 95 44 32767 32767 7 32767 32767 33 32767 32767 32767 32767 21 
32767 35 32767 32767 32767 32767 93 32767 32767 32767 73 32767 32767 32767 10 50 32767 32767 66 32767 32767 91 32767 32767 2 32767 60 32767 32767 77 52 32767 
32767 32767 32767 4 32767 32767 34 17 32767 73 32767 32767 32767 32767 32767 32767 32767 32767 63 63 32767 62 49 32767 69 32767 32767 32767 32767 32767 32767 61 
13 32767 32767 32767 32767 18 32767 4 32767 32767 32767 32767 32767 65 32767 32767 47 32767 8 32767 71 32767 32767 32767 32767 32767 32767 47 32767 10 32767 32767 
85 32767 35 32767 20 32767 32767 3 63 32767 32767 32767 32767 11 3 32767 32767 32767 32767 32767 32767 90 82 43 32767 32767 32767 32767 32767 32767 32767 32767 
61 28 32767 32767 30 13 32767 32767 81 32767 32767 65 11 32767 32767 32767 32767 34 32767 32767 32767 32767 82 10 32767 5 32767 32767 32767 58 32767 58 
15 83 32767 32767 32767 32767 32767 32767 46 10 32767 32767 3 32767 32767 32767 41 97 93 32767 32767 20 32767 32767 32767 32767 32767 32767 1 32767 50 32767 
32767 32767 60 32767 32767 2 32767 32767 32767 50 32767 32767 32767 32767 32767 32767 32767 32767 20 32767 25 32767 32767 32767 32767 32767 32767 51 32767 85 61 32767 
40 44 50 32767 32767 32767 32767 32767 32767 32767 32767 47 32767 32767 41 32767 32767 32767 82 32767 32767 42 32767 19 32767 32767 32767 32767 32767 32767 88 32767 
17 32767 52 32767 32767 32767 32767 32767 32767 32767 32767 32767 32767 34 97 32767 32767 32767 32767 32767 32767 21 65 32767 70 32767 32 32767 32767 32767 32767 32767 
32767 32767 32767 32767 32767 32767 32767 32767 32767 66 63 8 32767 32767 93 20 82 32767 32767 32767 32767 32767 32767 29 32767 32767 12 11 32767 32767 32767 32767 
32767 75 32767 32767 32767 32767 24 32767 95 32767 63 32767 32767 32767 32767 32767 32767 32767 32767 32767 32767 32767 31 32767 32767 32767 32767 32767 26 37 32767 32767 
32767 65 78 42 32767 27 32767 32767 44 32767 32767 71 32767 32767 32767 25 32767 32767 32767 32767 32767 89 52 71 32767 94 32767 32767 32767 32767 41 32767 
32767 32767 32767 89 5 32767 41 51 32767 91 62 32767 90 32767 20 32767 42 21 32767 32767 89 32767 32767 32767 32767 32767 32767 99 32767 32767 32767 32767 
60 63 32767 32767 32767 32767 32767 72 32767 32767 49 32767 82 82 32767 32767 32767 65 32767 31 52 32767 32767 32767 32767 57 32767 99 32767 32767 32767 21 
99 32767 32767 60 32767 32767 32767 32767 7 32767 32767 32767 43 10 32767 32767 19 32767 29 32767 71 32767 32767 32767 31 32767 32767 32767 32767 32767 58 32767 
9 97 32767 16 32767 32767 32767 32767 32767 2 69 32767 32767 32767 32767 32767 32767 70 32767 32767 32767 32767 32767 31 32767 57 32767 32767 32767 2 6 32767 
32767 32767 81 46 72 100 87 32767 32767 32767 32767 32767 32767 5 32767 32767 32767 32767 32767 32767 94 32767 57 32767 57 32767 32767 92 32767 91 80 32767 
63 32767 5 79 22 32767 86 48 33 60 32767 32767 32767 32767 32767 32767 32767 32 12 32767 32767 32767 32767 32767 32767 32767 32767 53 32767 32767 32767 32767 
65 84 32767 32767 32767 32767 85 32767 32767 32767 32767 47 32767 32767 32767 51 32767 32767 11 32767 32767 99 99 32767 32767 92 53 32767 80 32767 89 12 
67 32767 32767 32767 32767 32767 59 32767 32767 32767 32767 32767 32767 32767 1 32767 32767 32767 32767 26 32767 32767 32767 32767 32767 32767 32767 80 32767 32767 32767 32767 
99 32767 32767 32767 11 32767 32767 32767 32767 77 32767 10 32767 58 32767 85 32767 32767 32767 37 32767 32767 32767 32767 2 91 32767 32767 32767 32767 32767 18 
32767 32767 32767 72 32767 32767 32767 40 32767 52 32767 32767 32767 32767 50 61 88 32767 32767 32767 41 32767 32767 58 6 80 32767 89 32767 32767 32767 32767 
35 32767 58 32767 32767 28 32767 32767 21 32767 61 32767 32767 58 32767 32767 32767 32767 32767 32767 32767 32767 21 32767 32767 32767 32767 12 32767 18 32767 32767 
EOF